WARNING: for repeatability, setting FPU to use double precision
============================[ Problem Statistics ]=============================
|                                                                             |
|  Number of variables:           288                                         |
|  Number of clauses:            3240                                         |
|  Parse time:                   0.00 s                                       |
|                                                                             |
c ============================[ Search Statistics ]==============================
c | Conflicts |          ORIGINAL         |          LEARNT          | Progress |
c |           |    Vars  Clauses Literals |    Limit  Clauses Lit/Cl |          |
c ===============================================================================
c Switched to VSIDS.
c Switched to LRB.
c Switched to VSIDS.
c Switched to LRB.
c Switched to VSIDS.
c Switched to LRB.
c Switched to VSIDS.
c Switched to LRB.
c Switched to VSIDS.
c Switched to LRB.
c Switched to VSIDS.
c Switched to LRB.
c Switched to VSIDS.
c Switched to LRB.
c Switched to VSIDS.
c Switched to LRB.
c Switched to VSIDS.
c Switched to LRB.
c Switched to VSIDS.
c Switched to LRB.
c Switched to VSIDS.
c Switched to LRB.
c Switched to VSIDS.
c Switched to LRB.
c Switched to VSIDS.
c Switched to LRB.
c Switched to VSIDS.
c Switched to LRB.
c Switched to VSIDS.
c Switched to LRB.
c Switched to VSIDS.
c Switched to LRB.
c Switched to VSIDS.
c Switched to LRB.
c ===============================================================================
restarts                  : 45463
conflicts                 : 17642286       (4994 /sec)
decisions                 : 21357889       (0.00 % random) (6045 /sec)
propagations              : 7883774131     (2231500 /sec)
conflict literals         : 1038785824     (19.37 % deleted)

conflicts w/ DIP found    : 4783980        (27.12 % of conflicts)
conflicts w/ dangerous DIP: 0              (0.00 % of conflicts)
conflicts w/ DIP-learning : 106803         (0.61 % of conflicts)
decisions on ext vars     : 19157          (0.09 % of decisions)
total ext vars            : 38574       
tried delete ext vars     : 35498       
deleted ext vars          : 35498       
max ext vars              : 3076        

Memory used               : 216.00 MB
CPU time                  : 3532.95 s
DIP computation time      : 74.4118 s (2.11 % of total time)
ER_sel time               : 19.8046 s
ER_add time               : 0.12424 s
ER_delC time              : 0 s
ER_delV time              : 1.35857 s
ER_sub time               : 23.1629 s
ER_stat time              : 0 s

INDETERMINATE
